c 3 - XORSAT
p cnf 50 200
-9 -21 -28 0
-9 21 28 0
9 -21 28 0
9 21 -28 0
15 25 41 0
-15 -25 41 0
-15 25 -41 0
15 -25 -41 0
-20 -34 -38 0
-20 34 38 0
20 -34 38 0
20 34 -38 0
3 23 26 0
-3 -23 26 0
-3 23 -26 0
3 -23 -26 0
-18 -25 -41 0
-18 25 41 0
18 -25 41 0
18 25 -41 0
-2 -6 -18 0
-2 6 18 0
2 -6 18 0
2 6 -18 0
1 5 39 0
-1 -5 39 0
-1 5 -39 0
1 -5 -39 0
-11 -31 -32 0
-11 31 32 0
11 -31 32 0
11 31 -32 0
-34 -48 -50 0
-34 48 50 0
34 -48 50 0
34 48 -50 0
29 37 40 0
-29 -37 40 0
-29 37 -40 0
29 -37 -40 0
-8 -13 -15 0
-8 13 15 0
8 -13 15 0
8 13 -15 0
-24 -26 -38 0
-24 26 38 0
24 -26 38 0
24 26 -38 0
-10 -22 -44 0
-10 22 44 0
10 -22 44 0
10 22 -44 0
12 23 40 0
-12 -23 40 0
-12 23 -40 0
12 -23 -40 0
-8 -31 -49 0
-8 31 49 0
8 -31 49 0
8 31 -49 0
-7 -27 -36 0
-7 27 36 0
7 -27 36 0
7 27 -36 0
11 14 16 0
-11 -14 16 0
-11 14 -16 0
11 -14 -16 0
-10 -29 -32 0
-10 29 32 0
10 -29 32 0
10 29 -32 0
5 12 39 0
-5 -12 39 0
-5 12 -39 0
5 -12 -39 0
-21 -26 -38 0
-21 26 38 0
21 -26 38 0
21 26 -38 0
9 17 20 0
-9 -17 20 0
-9 17 -20 0
9 -17 -20 0
-21 -35 -48 0
-21 35 48 0
21 -35 48 0
21 35 -48 0
-27 -43 -45 0
-27 43 45 0
27 -43 45 0
27 43 -45 0
-2 -20 -46 0
-2 20 46 0
2 -20 46 0
2 20 -46 0
-10 -28 -30 0
-10 28 30 0
10 -28 30 0
10 28 -30 0
3 6 9 0
-3 -6 9 0
-3 6 -9 0
3 -6 -9 0
33 35 42 0
-33 -35 42 0
-33 35 -42 0
33 -35 -42 0
-1 -4 -19 0
-1 4 19 0
1 -4 19 0
1 4 -19 0
14 41 47 0
-14 -41 47 0
-14 41 -47 0
14 -41 -47 0
-4 -17 -18 0
-4 17 18 0
4 -17 18 0
4 17 -18 0
-5 -8 -15 0
-5 8 15 0
5 -8 15 0
5 8 -15 0
-14 -22 -44 0
-14 22 44 0
14 -22 44 0
14 22 -44 0
16 19 34 0
-16 -19 34 0
-16 19 -34 0
16 -19 -34 0
7 24 27 0
-7 -24 27 0
-7 24 -27 0
7 -24 -27 0
13 48 50 0
-13 -48 50 0
-13 48 -50 0
13 -48 -50 0
28 35 37 0
-28 -35 37 0
-28 35 -37 0
28 -35 -37 0
22 30 39 0
-22 -30 39 0
-22 30 -39 0
22 -30 -39 0
13 23 42 0
-13 -23 42 0
-13 23 -42 0
13 -23 -42 0
4 30 32 0
-4 -30 32 0
-4 30 -32 0
4 -30 -32 0
-45 -49 -36 0
-45 49 36 0
45 -49 36 0
45 49 -36 0
24 31 50 0
-24 -31 50 0
-24 31 -50 0
24 -31 -50 0
12 40 43 0
-12 -40 43 0
-12 40 -43 0
12 -40 -43 0
45 46 47 0
-45 -46 47 0
-45 46 -47 0
45 -46 -47 0
6 17 25 0
-6 -17 25 0
-6 17 -25 0
6 -17 -25 0
44 42 47 0
-44 -42 47 0
-44 42 -47 0
44 -42 -47 0
33 37 46 0
-33 -37 46 0
-33 37 -46 0
33 -37 -46 0
2 29 43 0
-2 -29 43 0
-2 29 -43 0
2 -29 -43 0
-1 -3 -7 0
-1 3 7 0
1 -3 7 0
1 3 -7 0
-11 -16 -19 0
-11 16 19 0
11 -16 19 0
11 16 -19 0
33 36 49 0
-33 -36 49 0
-33 36 -49 0
33 -36 -49 0
